NAME: test12
TYPE: TSP
DIMENSION: 10
EDGE_WEIGHT_TYPE: EUC_2D
NODE_COORD_SECTION
1 9.644998572235297 18.692820493871764
2 3.722987119593546 33.85536226140247
3 25.98126254406612 43.27672661884833
4 12.550774218458216 7.677029276939463
5 23.814948154276173 63.60086878336072
6 68.21736830935899 5.840954527325515
7 48.121863105120866 72.36798356979871
8 93.65083907136747 66.01019898657074
9 58.13986303244027 0.8818572794648372
10 18.61074404972819 76.31813798209602
EOF
